c Generated with `cnfgen`
c (C) 2012-2018 Massimo Lauria <lauria.massimo@gmail.com>
c https://massimolauria.net/cnfgen
c
c COMMAND LINE: cnfgen tseitin --gnd 20 5 --charge randomodd
c
p cnf 50 320
1 2 3 4 5 0
1 2 3 -4 -5 0
1 2 -3 4 -5 0
1 2 -3 -4 5 0
1 -2 3 4 -5 0
1 -2 3 -4 5 0
1 -2 -3 4 5 0
1 -2 -3 -4 -5 0
-1 2 3 4 -5 0
-1 2 3 -4 5 0
-1 2 -3 4 5 0
-1 2 -3 -4 -5 0
-1 -2 3 4 5 0
-1 -2 3 -4 -5 0
-1 -2 -3 4 -5 0
-1 -2 -3 -4 5 0
6 7 8 9 -10 0
6 7 8 -9 10 0
6 7 -8 9 10 0
6 7 -8 -9 -10 0
6 -7 8 9 10 0
6 -7 8 -9 -10 0
6 -7 -8 9 -10 0
6 -7 -8 -9 10 0
-6 7 8 9 10 0
-6 7 8 -9 -10 0
-6 7 -8 9 -10 0
-6 7 -8 -9 10 0
-6 -7 8 9 -10 0
-6 -7 8 -9 10 0
-6 -7 -8 9 10 0
-6 -7 -8 -9 -10 0
11 12 13 14 -15 0
11 12 13 -14 15 0
11 12 -13 14 15 0
11 12 -13 -14 -15 0
11 -12 13 14 15 0
11 -12 13 -14 -15 0
11 -12 -13 14 -15 0
11 -12 -13 -14 15 0
-11 12 13 14 15 0
-11 12 13 -14 -15 0
-11 12 -13 14 -15 0
-11 12 -13 -14 15 0
-11 -12 13 14 -15 0
-11 -12 13 -14 15 0
-11 -12 -13 14 15 0
-11 -12 -13 -14 -15 0
16 17 18 19 -20 0
16 17 18 -19 20 0
16 17 -18 19 20 0
16 17 -18 -19 -20 0
16 -17 18 19 20 0
16 -17 18 -19 -20 0
16 -17 -18 19 -20 0
16 -17 -18 -19 20 0
-16 17 18 19 20 0
-16 17 18 -19 -20 0
-16 17 -18 19 -20 0
-16 17 -18 -19 20 0
-16 -17 18 19 -20 0
-16 -17 18 -19 20 0
-16 -17 -18 19 20 0
-16 -17 -18 -19 -20 0
16 21 22 23 -24 0
16 21 22 -23 24 0
16 21 -22 23 24 0
16 21 -22 -23 -24 0
16 -21 22 23 24 0
16 -21 22 -23 -24 0
16 -21 -22 23 -24 0
16 -21 -22 -23 24 0
-16 21 22 23 24 0
-16 21 22 -23 -24 0
-16 21 -22 23 -24 0
-16 21 -22 -23 24 0
-16 -21 22 23 -24 0
-16 -21 22 -23 24 0
-16 -21 -22 23 24 0
-16 -21 -22 -23 -24 0
6 17 21 25 26 0
6 17 21 -25 -26 0
6 17 -21 25 -26 0
6 17 -21 -25 26 0
6 -17 21 25 -26 0
6 -17 21 -25 26 0
6 -17 -21 25 26 0
6 -17 -21 -25 -26 0
-6 17 21 25 -26 0
-6 17 21 -25 26 0
-6 17 -21 25 26 0
-6 17 -21 -25 -26 0
-6 -17 21 25 26 0
-6 -17 21 -25 -26 0
-6 -17 -21 25 -26 0
-6 -17 -21 -25 26 0
11 22 27 28 29 0
11 22 27 -28 -29 0
11 22 -27 28 -29 0
11 22 -27 -28 29 0
11 -22 27 28 -29 0
11 -22 27 -28 29 0
11 -22 -27 28 29 0
11 -22 -27 -28 -29 0
-11 22 27 28 -29 0
-11 22 27 -28 29 0
-11 22 -27 28 29 0
-11 22 -27 -28 -29 0
-11 -22 27 28 29 0
-11 -22 27 -28 -29 0
-11 -22 -27 28 -29 0
-11 -22 -27 -28 29 0
18 30 31 32 33 0
18 30 31 -32 -33 0
18 30 -31 32 -33 0
18 30 -31 -32 33 0
18 -30 31 32 -33 0
18 -30 31 -32 33 0
18 -30 -31 32 33 0
18 -30 -31 -32 -33 0
-18 30 31 32 -33 0
-18 30 31 -32 33 0
-18 30 -31 32 33 0
-18 30 -31 -32 -33 0
-18 -30 31 32 33 0
-18 -30 31 -32 -33 0
-18 -30 -31 32 -33 0
-18 -30 -31 -32 33 0
1 25 27 34 35 0
1 25 27 -34 -35 0
1 25 -27 34 -35 0
1 25 -27 -34 35 0
1 -25 27 34 -35 0
1 -25 27 -34 35 0
1 -25 -27 34 35 0
1 -25 -27 -34 -35 0
-1 25 27 34 -35 0
-1 25 27 -34 35 0
-1 25 -27 34 35 0
-1 25 -27 -34 -35 0
-1 -25 27 34 35 0
-1 -25 27 -34 -35 0
-1 -25 -27 34 -35 0
-1 -25 -27 -34 35 0
2 36 37 38 -39 0
2 36 37 -38 39 0
2 36 -37 38 39 0
2 36 -37 -38 -39 0
2 -36 37 38 39 0
2 -36 37 -38 -39 0
2 -36 -37 38 -39 0
2 -36 -37 -38 39 0
-2 36 37 38 39 0
-2 36 37 -38 -39 0
-2 36 -37 38 -39 0
-2 36 -37 -38 39 0
-2 -36 37 38 -39 0
-2 -36 37 -38 39 0
-2 -36 -37 38 39 0
-2 -36 -37 -38 -39 0
28 30 34 40 41 0
28 30 34 -40 -41 0
28 30 -34 40 -41 0
28 30 -34 -40 41 0
28 -30 34 40 -41 0
28 -30 34 -40 41 0
28 -30 -34 40 41 0
28 -30 -34 -40 -41 0
-28 30 34 40 -41 0
-28 30 34 -40 41 0
-28 30 -34 40 41 0
-28 30 -34 -40 -41 0
-28 -30 34 40 41 0
-28 -30 34 -40 -41 0
-28 -30 -34 40 -41 0
-28 -30 -34 -40 41 0
19 29 31 36 42 0
19 29 31 -36 -42 0
19 29 -31 36 -42 0
19 29 -31 -36 42 0
19 -29 31 36 -42 0
19 -29 31 -36 42 0
19 -29 -31 36 42 0
19 -29 -31 -36 -42 0
-19 29 31 36 -42 0
-19 29 31 -36 42 0
-19 29 -31 36 42 0
-19 29 -31 -36 -42 0
-19 -29 31 36 42 0
-19 -29 31 -36 -42 0
-19 -29 -31 36 -42 0
-19 -29 -31 -36 42 0
23 40 43 44 45 0
23 40 43 -44 -45 0
23 40 -43 44 -45 0
23 40 -43 -44 45 0
23 -40 43 44 -45 0
23 -40 43 -44 45 0
23 -40 -43 44 45 0
23 -40 -43 -44 -45 0
-23 40 43 44 -45 0
-23 40 43 -44 45 0
-23 40 -43 44 45 0
-23 40 -43 -44 -45 0
-23 -40 43 44 45 0
-23 -40 43 -44 -45 0
-23 -40 -43 44 -45 0
-23 -40 -43 -44 45 0
3 7 12 43 46 0
3 7 12 -43 -46 0
3 7 -12 43 -46 0
3 7 -12 -43 46 0
3 -7 12 43 -46 0
3 -7 12 -43 46 0
3 -7 -12 43 46 0
3 -7 -12 -43 -46 0
-3 7 12 43 -46 0
-3 7 12 -43 46 0
-3 7 -12 43 46 0
-3 7 -12 -43 -46 0
-3 -7 12 43 46 0
-3 -7 12 -43 -46 0
-3 -7 -12 43 -46 0
-3 -7 -12 -43 46 0
24 35 41 46 -47 0
24 35 41 -46 47 0
24 35 -41 46 47 0
24 35 -41 -46 -47 0
24 -35 41 46 47 0
24 -35 41 -46 -47 0
24 -35 -41 46 -47 0
24 -35 -41 -46 47 0
-24 35 41 46 47 0
-24 35 41 -46 -47 0
-24 35 -41 46 -47 0
-24 35 -41 -46 47 0
-24 -35 41 46 -47 0
-24 -35 41 -46 47 0
-24 -35 -41 46 47 0
-24 -35 -41 -46 -47 0
8 20 26 37 48 0
8 20 26 -37 -48 0
8 20 -26 37 -48 0
8 20 -26 -37 48 0
8 -20 26 37 -48 0
8 -20 26 -37 48 0
8 -20 -26 37 48 0
8 -20 -26 -37 -48 0
-8 20 26 37 -48 0
-8 20 26 -37 48 0
-8 20 -26 37 48 0
-8 20 -26 -37 -48 0
-8 -20 26 37 48 0
-8 -20 26 -37 -48 0
-8 -20 -26 37 -48 0
-8 -20 -26 -37 48 0
4 9 13 38 49 0
4 9 13 -38 -49 0
4 9 -13 38 -49 0
4 9 -13 -38 49 0
4 -9 13 38 -49 0
4 -9 13 -38 49 0
4 -9 -13 38 49 0
4 -9 -13 -38 -49 0
-4 9 13 38 -49 0
-4 9 13 -38 49 0
-4 9 -13 38 49 0
-4 9 -13 -38 -49 0
-4 -9 13 38 49 0
-4 -9 13 -38 -49 0
-4 -9 -13 38 -49 0
-4 -9 -13 -38 49 0
10 14 32 47 50 0
10 14 32 -47 -50 0
10 14 -32 47 -50 0
10 14 -32 -47 50 0
10 -14 32 47 -50 0
10 -14 32 -47 50 0
10 -14 -32 47 50 0
10 -14 -32 -47 -50 0
-10 14 32 47 -50 0
-10 14 32 -47 50 0
-10 14 -32 47 50 0
-10 14 -32 -47 -50 0
-10 -14 32 47 50 0
-10 -14 32 -47 -50 0
-10 -14 -32 47 -50 0
-10 -14 -32 -47 50 0
15 33 39 44 49 0
15 33 39 -44 -49 0
15 33 -39 44 -49 0
15 33 -39 -44 49 0
15 -33 39 44 -49 0
15 -33 39 -44 49 0
15 -33 -39 44 49 0
15 -33 -39 -44 -49 0
-15 33 39 44 -49 0
-15 33 39 -44 49 0
-15 33 -39 44 49 0
-15 33 -39 -44 -49 0
-15 -33 39 44 49 0
-15 -33 39 -44 -49 0
-15 -33 -39 44 -49 0
-15 -33 -39 -44 49 0
5 42 45 48 -50 0
5 42 45 -48 50 0
5 42 -45 48 50 0
5 42 -45 -48 -50 0
5 -42 45 48 50 0
5 -42 45 -48 -50 0
5 -42 -45 48 -50 0
5 -42 -45 -48 50 0
-5 42 45 48 50 0
-5 42 45 -48 -50 0
-5 42 -45 48 -50 0
-5 42 -45 -48 50 0
-5 -42 45 48 -50 0
-5 -42 45 -48 50 0
-5 -42 -45 48 50 0
-5 -42 -45 -48 -50 0
